data/solutions/recovery/wellformed/moderate/flexible/wellformed_moderate_instance64/25.sol
Elapsed time: 100.05
Upper bound: 4862.0
Planning weighted value: 176799.0
C[0]=4862.0
C[1]=4861.0
C[2]=4861.0
C[3]=4860.0
C[4]=0.0
y[0]=0
y[1]=1
y[2]=2
y[3]=2
y[4]=2
y[5]=2
y[6]=1
y[7]=1
y[8]=2
y[9]=3
y[10]=3
y[11]=0
y[12]=2
y[13]=2
y[14]=3
y[15]=0
y[16]=3
y[17]=0
y[18]=3
y[19]=1
y[20]=3
y[21]=2
y[22]=0
y[23]=3
y[24]=3
y[25]=3
y[26]=0
y[27]=0
y[28]=2
y[29]=1
y[30]=0
y[31]=1
y[32]=2
y[33]=0
y[34]=2
y[35]=3
y[36]=3
y[37]=2
y[38]=1
y[39]=1
y[40]=0
