data/solutions/recovery/wellformed/moderate/flexible/wellformed_moderate_instance64/25.log

Log started (V12.6.3.0) Fri Apr 20 20:10:02 2018

New value for default parallel thread count: 1

Problem '/tmp/tmpfu9Q1p.pyomo.lp' read.
Read time = 0.00 sec. (0.08 ticks)

Problem name         : /tmp/tmpfu9Q1p.pyomo.lp
Objective sense      : Minimize
Variables            :     212  [Nneg: 1,  Binary: 205,  General Integer: 6]
Objective nonzeros   :       1
Linear constraints   :      94  [Less: 46,  Equal: 48]
  Nonzeros           :    5695
  RHS nonzeros       :      83

Variables            : Min LB: 0.000000         Max UB: 1.000000       
Objective nonzeros   : Min   : 1.000000         Max   : 1.000000       
Linear constraints   :
  Nonzeros           : Min   : 1.000000         Max   : 1963.000       
  RHS nonzeros       : Min   : 1.000000         Max   : 5.000000       
Tried aggregator 2 times.
MIP Presolve eliminated 45 rows and 56 columns.
Aggregator did 7 substitutions.
Reduced MIP has 42 rows, 149 columns, and 387 nonzeros.
Reduced MIP has 148 binaries, 1 generals, 0 SOSs, and 0 indicators.
Presolve time = 0.00 sec. (1.42 ticks)
Found incumbent of value 19444.000000 after 0.00 sec. (1.73 ticks)
Probing time = 0.00 sec. (0.12 ticks)
Cover probing fixed 0 vars, tightened 6 bounds.
Tried aggregator 1 time.
Reduced MIP has 42 rows, 149 columns, and 387 nonzeros.
Reduced MIP has 148 binaries, 1 generals, 0 SOSs, and 0 indicators.
Presolve time = 0.00 sec. (0.27 ticks)
Probing time = 0.00 sec. (0.08 ticks)
Clique table members: 37.
MIP emphasis: balance optimality and feasibility.
MIP search method: dynamic search.
Parallel mode: none, using 1 thread.
Root relaxation solution time = 0.00 sec. (0.17 ticks)

        Nodes                                         Cuts/
   Node  Left     Objective  IInf  Best Integer    Best Bound    ItCnt     Gap

*     0+    0                        19444.0000     1963.0000            89.90%
      0     0     4861.0000     6    19444.0000     4861.0000       20   75.00%
*     0+    0                         5223.0000     4861.0000             6.93%
      0     0     4861.0000    12     5223.0000       Cuts: 4       27    6.93%
*     0+    0                         5221.0000     4861.0000             6.90%
      0     0     4861.0000     6     5221.0000       Cuts: 6       31    6.90%
*     0+    0                         5011.0000     4861.0000             2.99%
      0     0     4861.0000     8     5011.0000    MIRcuts: 1       32    2.99%
*     0+    0                         5004.0000     4861.0000             2.86%
*     0+    0                         4977.0000     4861.0000             2.33%
      0     2     4861.0000     8     4977.0000     4861.0000       32    2.33%
Elapsed time = 0.01 sec. (7.67 ticks, tree = 0.01 MB, solutions = 6)
*    40+   25                         4973.0000     4861.0000             2.25%
*    60    34      integral     0     4917.0000     4861.0000      222    1.14%
*   200+   75                         4902.0000     4861.0000             0.84%
*   229    95      integral     0     4891.0000     4861.0000      725    0.61%
*   329+  103                         4880.0000     4861.0000             0.39%
*   874   198      integral     0     4874.0000     4861.0000     3091    0.27%
*  1677+  210                         4872.0000     4861.0000             0.23%
*  1677+  164                         4867.0000     4861.0000             0.12%
   2087   359     4861.0000     5     4867.0000     4861.0000     6099    0.12%
   2088   360     4861.0000     5     4867.0000     4861.0000     6103    0.12%
   2089   361     4861.0000     6     4867.0000     4861.0000     6105    0.12%
   2090   362     4861.0000     5     4867.0000     4861.0000     6106    0.12%
   2091   363     4861.0000     6     4867.0000     4861.0000     6108    0.12%
   2092   364     4861.0000     6     4867.0000     4861.0000     6109    0.12%
   2093   365     4861.0000     6     4867.0000     4861.0000     6111    0.12%
   2094   366     4861.0000     6     4867.0000     4861.0000     6112    0.12%
   2095   367     4861.0000     6     4867.0000     4861.0000     6113    0.12%
*  3477+ 1210                         4864.0000     4861.0000             0.06%
   7417  2335        cutoff           4864.0000     4861.0000    15682    0.06%
Elapsed time = 1.19 sec. (961.44 ticks, tree = 0.68 MB, solutions = 15)
  18605  5306     4861.0000     6     4864.0000     4861.0000    39031    0.06%
  18606  5307     4861.0000     5     4864.0000     4861.0000    39032    0.06%
  18607  5308     4861.0000     6     4864.0000     4861.0000    39033    0.06%
  18608  5309     4861.0000     5     4864.0000     4861.0000    39036    0.06%
  18609  5308        cutoff           4864.0000     4861.0000    39043    0.06%
  18610  5307    infeasible           4864.0000     4861.0000    39043    0.06%
  18611  5308     4861.0000     6     4864.0000     4861.0000    39047    0.06%
  18612  5309     4861.0000     6     4864.0000     4861.0000    39048    0.06%
  18613  5310     4861.0000     6     4864.0000     4861.0000    39049    0.06%
  18614  5311     4861.0000     6     4864.0000     4861.0000    39051    0.06%
Elapsed time = 2.47 sec. (1915.79 ticks, tree = 1.55 MB, solutions = 15)
* 21731  5812      integral     0     4862.0000     4861.0000    45356    0.02%
  31362  6549     4861.0000     8     4862.0000     4861.0000    66327    0.02%
  31363  6548    infeasible           4862.0000     4861.0000    66328    0.02%
  31364  6547    infeasible           4862.0000     4861.0000    66329    0.02%
  31365  6548     4861.0000     8     4862.0000     4861.0000    66331    0.02%
  31366  6549     4861.0000     6     4862.0000     4861.0000    66332    0.02%
  31367  6550     4861.0000     6     4862.0000     4861.0000    66333    0.02%
  31368  6551     4861.0000     6     4862.0000     4861.0000    66334    0.02%
  31369  6552     4861.0000     6     4862.0000     4861.0000    66335    0.02%
  31370  6553     4861.0000     6     4862.0000     4861.0000    66336    0.02%
  31371  6554     4861.0000     6     4862.0000     4861.0000    66337    0.02%
Elapsed time = 3.65 sec. (2869.91 ticks, tree = 1.85 MB, solutions = 16)
  44685  7282     4861.0000     6     4862.0000     4861.0000    92602    0.02%
  44686  7283     4861.0000     6     4862.0000     4861.0000    92603    0.02%
  44687  7282    infeasible           4862.0000     4861.0000    92603    0.02%
  44688  7281    infeasible           4862.0000     4861.0000    92603    0.02%
  44689  7280    infeasible           4862.0000     4861.0000    92611    0.02%
  44690  7279    infeasible           4862.0000     4861.0000    92616    0.02%
  44691  7278    infeasible           4862.0000     4861.0000    92616    0.02%
  44692  7277    infeasible           4862.0000     4861.0000    92616    0.02%
  44693  7276    infeasible           4862.0000     4861.0000    92617    0.02%
  44694  7275    infeasible           4862.0000     4861.0000    92617    0.02%
Elapsed time = 4.82 sec. (3824.28 ticks, tree = 2.03 MB, solutions = 16)
  57725  8138    infeasible           4862.0000     4861.0000   120308    0.02%
  57726  8137    infeasible           4862.0000     4861.0000   120308    0.02%
  57727  8136    infeasible           4862.0000     4861.0000   120308    0.02%
  57728  8135    infeasible           4862.0000     4861.0000   120310    0.02%
  57729  8134    infeasible           4862.0000     4861.0000   120314    0.02%
  57730  8133    infeasible           4862.0000     4861.0000   120314    0.02%
  57731  8132    infeasible           4862.0000     4861.0000   120317    0.02%
  57732  8133     4861.0000     8     4862.0000     4861.0000   120322    0.02%
  57733  8134     4861.0000     6     4862.0000     4861.0000   120324    0.02%
  57734  8135     4861.0000     6     4862.0000     4861.0000   120326    0.02%
Elapsed time = 6.02 sec. (4778.83 ticks, tree = 2.49 MB, solutions = 16)
  72090 10994    infeasible           4862.0000     4861.0000   150255    0.02%
  72091 10993    infeasible           4862.0000     4861.0000   150255    0.02%
  72092 10994     4861.0000     6     4862.0000     4861.0000   150256    0.02%
  72093 10995     4861.0000     6     4862.0000     4861.0000   150257    0.02%
  72094 10996     4861.0000     6     4862.0000     4861.0000   150258    0.02%
  72095 10996     4861.0000     6     4862.0000     4861.0000   150259    0.02%
  72096 10995    infeasible           4862.0000     4861.0000   150265    0.02%
  72097 10994    infeasible           4862.0000     4861.0000   150269    0.02%
  72098 10993    infeasible           4862.0000     4861.0000   150272    0.02%
  72099 10992    infeasible           4862.0000     4861.0000   150272    0.02%
Elapsed time = 7.21 sec. (5733.07 ticks, tree = 3.22 MB, solutions = 16)
  86522 12206     4861.0000     6     4862.0000     4861.0000   178886    0.02%
  86523 12207     4861.0000     6     4862.0000     4861.0000   178887    0.02%
  86524 12208     4861.0000     5     4862.0000     4861.0000   178888    0.02%
  86525 12209     4861.0000     6     4862.0000     4861.0000   178889    0.02%
  86526 12210     4861.0000     6     4862.0000     4861.0000   178890    0.02%
  86527 12211     4861.0000     6     4862.0000     4861.0000   178891    0.02%
  86528 12212     4861.0000     6     4862.0000     4861.0000   178892    0.02%
  86529 12213     4861.0000     6     4862.0000     4861.0000   178893    0.02%
  86530 12214     4861.0000     6     4862.0000     4861.0000   178894    0.02%
  86531 12215     4861.0000     6     4862.0000     4861.0000   178895    0.02%
Elapsed time = 8.37 sec. (6687.01 ticks, tree = 3.53 MB, solutions = 16)
 101748 13693    infeasible           4862.0000     4861.0000   207913    0.02%
 101749 13692    infeasible           4862.0000     4861.0000   207915    0.02%
 101750 13691    infeasible           4862.0000     4861.0000   207915    0.02%
 101751 13690    infeasible           4862.0000     4861.0000   207915    0.02%
 101752 13689    infeasible           4862.0000     4861.0000   207915    0.02%
 101753 13688    infeasible           4862.0000     4861.0000   207915    0.02%
 101754 13687    infeasible           4862.0000     4861.0000   207916    0.02%
 101755 13686    infeasible           4862.0000     4861.0000   207917    0.02%
 101756 13685    infeasible           4862.0000     4861.0000   207920    0.02%
 101757 13684    infeasible           4862.0000     4861.0000   207924    0.02%
Elapsed time = 9.54 sec. (7641.14 ticks, tree = 3.90 MB, solutions = 16)
 117889 14679     4861.0000     6     4862.0000     4861.0000   238458    0.02%
 117890 14680     4861.0000     6     4862.0000     4861.0000   238459    0.02%
 117891 14681     4861.0000     6     4862.0000     4861.0000   238460    0.02%
 117892 14680    infeasible           4862.0000     4861.0000   238462    0.02%
 117893 14679    infeasible           4862.0000     4861.0000   238465    0.02%
 117894 14680     4861.0000     6     4862.0000     4861.0000   238470    0.02%
 117895 14681     4861.0000     7     4862.0000     4861.0000   238472    0.02%
 117896 14682     4861.0000     7     4862.0000     4861.0000   238473    0.02%
 117897 14683     4861.0000     7     4862.0000     4861.0000   238474    0.02%
 117898 14684     4861.0000     7     4862.0000     4861.0000   238475    0.02%
Elapsed time = 10.73 sec. (8595.62 ticks, tree = 4.16 MB, solutions = 16)
 131144 15406     4861.0000     6     4862.0000     4861.0000   267728    0.02%
 131145 15407     4861.0000     4     4862.0000     4861.0000   267729    0.02%
 131146 15406    infeasible           4862.0000     4861.0000   267738    0.02%
 131147 15405    infeasible           4862.0000     4861.0000   267741    0.02%
 131148 15404    infeasible           4862.0000     4861.0000   267742    0.02%
 131149 15403    infeasible           4862.0000     4861.0000   267745    0.02%
 131150 15402    infeasible           4862.0000     4861.0000   267745    0.02%
 131151 15401    infeasible           4862.0000     4861.0000   267748    0.02%
 131152 15400    infeasible           4862.0000     4861.0000   267748    0.02%
 173131 20640    infeasible           4862.0000     4861.0000   354129    0.02%
Elapsed time = 15.42 sec. (12410.47 ticks, tree = 6.15 MB, solutions = 16)
 222592 24113     4861.0000     5     4862.0000     4861.0000   457374    0.02%
 222593 24114     4861.0000     7     4862.0000     4861.0000   457376    0.02%
 222594 24115     4861.0000     5     4862.0000     4861.0000   457378    0.02%
 222595 24116     4861.0000     5     4862.0000     4861.0000   457379    0.02%
 222596 24117     4861.0000     7     4862.0000     4861.0000   457381    0.02%
 222597 24118     4861.0000     5     4862.0000     4861.0000   457383    0.02%
 222598 24119     4861.0000     5     4862.0000     4861.0000   457384    0.02%
 222599 24118    infeasible           4862.0000     4861.0000   457391    0.02%
 222600 24119     4861.0000     5     4862.0000     4861.0000   457393    0.02%
 222601 24120     4861.0000     5     4862.0000     4861.0000   457394    0.02%
Elapsed time = 20.57 sec. (16225.74 ticks, tree = 7.09 MB, solutions = 16)
 280612 28697    infeasible           4862.0000     4861.0000   568121    0.02%
 280613 28696    infeasible           4862.0000     4861.0000   568127    0.02%
 280614 28695    infeasible           4862.0000     4861.0000   568136    0.02%
 280615 28696     4861.0000     6     4862.0000     4861.0000   568137    0.02%
 280616 28697     4861.0000     8     4862.0000     4861.0000   568139    0.02%
 280617 28698     4861.0000     8     4862.0000     4861.0000   568140    0.02%
 280618 28699     4861.0000     6     4862.0000     4861.0000   568142    0.02%
 280619 28700     4861.0000     8     4862.0000     4861.0000   568144    0.02%
 280620 28701     4861.0000     6     4862.0000     4861.0000   568145    0.02%
 280621 28702     4861.0000     6     4862.0000     4861.0000   568146    0.02%
Elapsed time = 28.15 sec. (20041.20 ticks, tree = 8.31 MB, solutions = 16)
 339747 32383    infeasible           4862.0000     4861.0000   672984    0.02%
 339748 32382    infeasible           4862.0000     4861.0000   672984    0.02%
 339749 32381    infeasible           4862.0000     4861.0000   672984    0.02%
 339750 32380    infeasible           4862.0000     4861.0000   672987    0.02%
 339751 32381     4861.0000     5     4862.0000     4861.0000   672988    0.02%
 339752 32382     4861.0000     6     4862.0000     4861.0000   672989    0.02%
 339753 32383     4861.0000     6     4862.0000     4861.0000   672990    0.02%
 339754 32382    infeasible           4862.0000     4861.0000   672993    0.02%
 339755 32383     4861.0000     6     4862.0000     4861.0000   672994    0.02%
 339756 32384     4861.0000     6     4862.0000     4861.0000   672995    0.02%
Elapsed time = 35.61 sec. (23856.36 ticks, tree = 9.29 MB, solutions = 16)
 394802 37977    infeasible           4862.0000     4861.0000   782590    0.02%
 394803 37976    infeasible           4862.0000     4861.0000   782602    0.02%
 394804 37975    infeasible           4862.0000     4861.0000   782608    0.02%
 394805 37974    infeasible           4862.0000     4861.0000   782614    0.02%
 394806 37975     4861.0000     6     4862.0000     4861.0000   782616    0.02%
 394807 37976     4861.0000     6     4862.0000     4861.0000   782617    0.02%
 394808 37977     4861.0000     6     4862.0000     4861.0000   782618    0.02%
 394809 37978     4861.0000     6     4862.0000     4861.0000   782619    0.02%
 394810 37979     4861.0000     6     4862.0000     4861.0000   782621    0.02%
 394811 37980     4861.0000     6     4862.0000     4861.0000   782623    0.02%
Elapsed time = 43.20 sec. (27672.17 ticks, tree = 11.70 MB, solutions = 16)
 449252 41096     4861.0000     5     4862.0000     4861.0000   888374    0.02%
 449253 41097     4861.0000     6     4862.0000     4861.0000   888375    0.02%
 449254 41098     4861.0000     6     4862.0000     4861.0000   888377    0.02%
 449255 41099     4861.0000     5     4862.0000     4861.0000   888378    0.02%
 449256 41100     4861.0000     6     4862.0000     4861.0000   888379    0.02%
 449257 41101     4861.0000     6     4862.0000     4861.0000   888380    0.02%
 449258 41102     4861.0000     6     4862.0000     4861.0000   888381    0.02%
 449259 41103     4861.0000     8     4862.0000     4861.0000   888383    0.02%
 449260 41104     4861.0000     8     4862.0000     4861.0000   888384    0.02%
 449261 41105     4861.0000     6     4862.0000     4861.0000   888385    0.02%
Elapsed time = 50.79 sec. (31487.18 ticks, tree = 12.54 MB, solutions = 16)
 501893 43624    infeasible           4862.0000     4861.0000   992398    0.02%
 501894 43623    infeasible           4862.0000     4861.0000   992401    0.02%
 501895 43624     4861.0000     6     4862.0000     4861.0000   992405    0.02%
 501896 43623    infeasible           4862.0000     4861.0000   992412    0.02%
 501897 43622    infeasible           4862.0000     4861.0000   992413    0.02%
 501898 43621    infeasible           4862.0000     4861.0000   992421    0.02%
 501899 43620    infeasible           4862.0000     4861.0000   992421    0.02%
 501900 43620     4861.0000     8     4862.0000     4861.0000   992426    0.02%
 501901 43619    infeasible           4862.0000     4861.0000   992429    0.02%
 501902 43620     4861.0000     6     4862.0000     4861.0000   992430    0.02%
Elapsed time = 58.44 sec. (35303.32 ticks, tree = 13.23 MB, solutions = 16)
 555483 46694    infeasible           4862.0000     4861.0000  1094546    0.02%
 555484 46693    infeasible           4862.0000     4861.0000  1094552    0.02%
 555485 46692    infeasible           4862.0000     4861.0000  1094552    0.02%
 555486 46691    infeasible           4862.0000     4861.0000  1094552    0.02%
 555487 46690    infeasible           4862.0000     4861.0000  1094552    0.02%
 555488 46689    infeasible           4862.0000     4861.0000  1094552    0.02%
 555489 46690     4861.0000     6     4862.0000     4861.0000  1094553    0.02%
 555490 46691     4861.0000     5     4862.0000     4861.0000  1094556    0.02%
 555491 46692     4861.0000     6     4862.0000     4861.0000  1094557    0.02%
 555492 46693     4861.0000     6     4862.0000     4861.0000  1094558    0.02%
Elapsed time = 66.10 sec. (39118.87 ticks, tree = 14.05 MB, solutions = 16)
 611777 50555     4861.0000     6     4862.0000     4861.0000  1206161    0.02%
 611778 50556     4861.0000     6     4862.0000     4861.0000  1206162    0.02%
 611779 50555    infeasible           4862.0000     4861.0000  1206164    0.02%
 611780 50556     4861.0000     8     4862.0000     4861.0000  1206166    0.02%
 611781 50555    infeasible           4862.0000     4861.0000  1206170    0.02%
 611782 50555     4861.0000     6     4862.0000     4861.0000  1206172    0.02%
 611783 50554    infeasible           4862.0000     4861.0000  1206176    0.02%
 611784 50553    infeasible           4862.0000     4861.0000  1206176    0.02%
 611785 50552    infeasible           4862.0000     4861.0000  1206185    0.02%
 611786 50553     4861.0000     8     4862.0000     4861.0000  1206188    0.02%
Elapsed time = 73.69 sec. (42951.48 ticks, tree = 15.09 MB, solutions = 16)
 668588 56319    infeasible           4862.0000     4861.0000  1317747    0.02%
 668589 56318    infeasible           4862.0000     4861.0000  1317747    0.02%
 668590 56317    infeasible           4862.0000     4861.0000  1317751    0.02%
 668591 56316    infeasible           4862.0000     4861.0000  1317751    0.02%
 668592 56315    infeasible           4862.0000     4861.0000  1317755    0.02%
 668593 56316     4861.0000     4     4862.0000     4861.0000  1317756    0.02%
 668594 56317     4861.0000     6     4862.0000     4861.0000  1317757    0.02%
 668595 56318     4861.0000     6     4862.0000     4861.0000  1317758    0.02%
 668596 56319     4861.0000     6     4862.0000     4861.0000  1317761    0.02%
 668597 56319     4861.0000     6     4862.0000     4861.0000  1317762    0.02%
Elapsed time = 79.22 sec. (46767.26 ticks, tree = 16.64 MB, solutions = 16)
 727114 61969     4861.0000     6     4862.0000     4861.0000  1429846    0.02%
 727115 61970     4861.0000     6     4862.0000     4861.0000  1429847    0.02%
 727116 61971     4861.0000     6     4862.0000     4861.0000  1429848    0.02%
 727117 61972     4861.0000     6     4862.0000     4861.0000  1429849    0.02%
 727118 61973     4861.0000     6     4862.0000     4861.0000  1429851    0.02%
 727119 61972    infeasible           4862.0000     4861.0000  1429855    0.02%
 727120 61971    infeasible           4862.0000     4861.0000  1429859    0.02%
 727121 61970    infeasible           4862.0000     4861.0000  1429859    0.02%
 727122 61969    infeasible           4862.0000     4861.0000  1429862    0.02%
 727123 61968    infeasible           4862.0000     4861.0000  1429862    0.02%
Elapsed time = 86.26 sec. (50582.28 ticks, tree = 18.15 MB, solutions = 16)
 778000 65235     4861.0000     6     4862.0000     4861.0000  1528416    0.02%
 778001 65234    infeasible           4862.0000     4861.0000  1528420    0.02%
 778002 65233    infeasible           4862.0000     4861.0000  1528422    0.02%
 778003 65232    infeasible           4862.0000     4861.0000  1528424    0.02%
 778004 65231    infeasible           4862.0000     4861.0000  1528434    0.02%
 778005 65232     4861.0000     8     4862.0000     4861.0000  1528439    0.02%
 778006 65233     4861.0000     6     4862.0000     4861.0000  1528440    0.02%
 778007 65234     4861.0000     6     4862.0000     4861.0000  1528445    0.02%
 778008 65235     4861.0000     6     4862.0000     4861.0000  1528447    0.02%
 778009 65236     4861.0000     6     4862.0000     4861.0000  1528449    0.02%
Elapsed time = 93.64 sec. (54397.81 ticks, tree = 19.01 MB, solutions = 16)

Gomory fractional cuts applied:  1

Root node processing (before b&c):
  Real time             =    0.01 sec. (7.68 ticks)
Sequential b&c:
  Real time             =   99.99 sec. (57643.14 ticks)
                          ------------
Total (root+branch&cut) =  100.00 sec. (57650.82 ticks)

Solution pool: 16 solutions saved.

MIP - Time limit exceeded, integer feasible:  Objective =  4.8620000000e+03
Current MIP best bound =  4.8610000000e+03 (gap = 1, 0.02%)
Solution time =  100.00 sec.  Iterations = 1620571  Nodes = 824011 (68915)
Deterministic time = 57650.82 ticks  (576.51 ticks/sec)


Incumbent solution written to file '/tmp/tmp96xPao.cplex.sol'.
